tsp_instances/TSP20/instance13.tsp
NODE_COORD_SECTION
0 33 148
1 60 177
2 149 175
3 115 46
4 197 63
5 69 141
6 185 104
7 115 141
8 100 182
9 18 134
10 42 17
11 118 99
12 106 110
13 132 44
14 165 92
15 31 87
16 152 71
17 96 116
18 101 0
19 145 10
