tsp_instances/TSP20/instance13.opt.tour
TOUR_SECTION
1
6
2
9
3
8
18
13
12
15
7
5
17
4
14
20
19
11
16
10
-1